# Solution for model r3_t9_m7_3
# Finished Task: 6 / 9
# Makespan: 486.0, Total Distance: 174.0, Total Time: 0.2472
# R O S F
0 0 11 250.0 250.0
1 1 10 242.0 242.0
2 2 8 50.0 50.0
3 2 4 383.0 421.0
4 2 -1 465.0 486.0
5 -1 -1 460.0 486.0
6 -1 -1 454.0 486.0
7 -1 -1 421.0 460.0
8 2 3 355.0 383.0
9 1 -1 389.0 421.0
10 1 9 359.0 379.0
11 0 -1 408.0 429.0
